Version identifier: 22.1.0.0 | 2022-03-09 | 1a383f8ce
CPXPARAM_Threads                                 1
CPXPARAM_MIP_Strategy_VariableSelect             3
CPXPARAM_TimeLimit                               599.99580676899996
Tried aggregator 1 time.
MIP Presolve eliminated 13 rows and 0 columns.
MIP Presolve modified 2 coefficients.
Reduced MIP has 612 rows, 2500 columns, and 25778 nonzeros.
Reduced MIP has 2500 binaries, 0 generals, 0 SOSs, and 0 indicators.
Presolve time = 0.03 sec. (15.50 ticks)
Probing time = 0.00 sec. (3.64 ticks)
Tried aggregator 1 time.
Detecting symmetries...
Reduced MIP has 612 rows, 2500 columns, and 25778 nonzeros.
Reduced MIP has 2500 binaries, 0 generals, 0 SOSs, and 0 indicators.
Presolve time = 0.02 sec. (18.05 ticks)
Probing time = 0.00 sec. (3.64 ticks)
Clique table members: 398.
MIP emphasis: balance optimality and feasibility.
MIP search method: dynamic search.
Parallel mode: none, using 1 thread.
Root relaxation solution time = 0.37 sec. (390.40 ticks)

        Nodes                                         Cuts/
   Node  Left     Objective  IInf  Best Integer    Best Bound    ItCnt     Gap

      0     0        0.0000   504                      0.0000     2604         
      0     0        0.0000   477                    Cuts: 12     5522         
      0     0        0.0000   375                     Cuts: 8     8591         
      0     0        0.0000   410                    Cuts: 18    10547         
      0     0        0.0000   400                     Cuts: 9    13090         
      0     0        0.0000   456                    Cuts: 13    16852         
      0     2        0.0000   262                      0.0000    16852         
Elapsed time = 12.85 sec. (14319.50 ticks, tree = 0.01 MB, solutions = 0)
      1     3        0.0000   325                      0.0000    19783         
      2     4        0.0000   431                      0.0000    22726         
      3     5        0.0000   296                      0.0000    26926         
      4     4    infeasible                            0.0000    29158         
      6     4    infeasible                            0.0000    31758         
      8     4    infeasible                            0.0000    33199         
     10     6        0.0000   268                      0.0000    34280         
     12     8        0.0000   270                      0.0000    35354         
     14     8        0.0000   270                      0.0000    36825         
     20     8        0.0000   274                      0.0000    41631         
Elapsed time = 17.51 sec. (19571.88 ticks, tree = 0.03 MB, solutions = 0)
     26     8        0.0000   270                      0.0000    47832         
     30    10        0.0000   236                      0.0000    57789         
     38    10    infeasible                            0.0000    64191         
     43    11        0.0000   157                      0.0000    72627         
     48    10    infeasible                            0.0000    81969         
     52     9        0.0000   135                      0.0000    91511         
     54     9        0.0000   116                      0.0000   100224         
     60     9        0.0000   221                      0.0000   107602         
     65    10    infeasible                            0.0000   114127         
     71    10    infeasible                            0.0000   122045         
Elapsed time = 28.14 sec. (31413.40 ticks, tree = 0.03 MB, solutions = 0)
     75    11        0.0000    94                      0.0000   128270         
     77    10        0.0000   145                      0.0000   136928         
     80    12        0.0000   138                      0.0000   143178         
     89    13    infeasible                            0.0000   146267         
     95    13    infeasible                            0.0000   154328         
    100    14        0.0000   155                      0.0000   158060         
    107    13        0.0000   172                      0.0000   165643         
    114    12    infeasible                            0.0000   172063         
    122     8    infeasible                            0.0000   178847         
    129    11        0.0000   200                      0.0000   183441         
Elapsed time = 37.01 sec. (41438.79 ticks, tree = 0.03 MB, solutions = 0)
    136    10    infeasible                            0.0000   192047         
    146    10        0.0000   182                      0.0000   196033         
    150    10        0.0000   182                      0.0000   198012         
    157     9    infeasible                            0.0000   202892         
    161     9        0.0000   207                      0.0000   211360         
    171     9        0.0000   205                      0.0000   213730         
    178     8    infeasible                            0.0000   217922         
    185     7    infeasible                            0.0000   225724         
    191     9        0.0000   239                      0.0000   231575         
    199     9    infeasible                            0.0000   235813         
Elapsed time = 46.21 sec. (51980.95 ticks, tree = 0.03 MB, solutions = 0)
    206    10        0.0000   208                      0.0000   243355         
    212    10        0.0000   201                      0.0000   249146         
    221     9        0.0000   217                      0.0000   253360         
    228     8    infeasible                            0.0000   260067         
    236     8    infeasible                            0.0000   266038         
    240     8        0.0000   261                      0.0000   269410         
    247     7    infeasible                            0.0000   278465         
    252     8        0.0000   248                      0.0000   286041         
    258    10        0.0000   209                      0.0000   295212         
    261     9    infeasible                            0.0000   300617         
Elapsed time = 55.65 sec. (62501.30 ticks, tree = 0.03 MB, solutions = 0)
    268    10    infeasible                            0.0000   304657         
    275    11        0.0000   161                      0.0000   308606         
    282     8    infeasible                            0.0000   311884         
    288     8    infeasible                            0.0000   320771         
    296    12        0.0000   279                      0.0000   323264         
    304    11        0.0000   274                      0.0000   329722         
    311    12        0.0000   286                      0.0000   332549         
    317    12    infeasible                            0.0000   336642         
    325    12    infeasible                            0.0000   339686         
    332    13        0.0000   279                      0.0000   342773         
Elapsed time = 65.04 sec. (73484.15 ticks, tree = 0.03 MB, solutions = 0)
    341    10        0.0000   297                      0.0000   346434         
    349    10        0.0000   306                      0.0000   354408         
    358     7    infeasible                            0.0000   367340         
    365     6    infeasible                            0.0000   379765         
    374     7        0.0000   280                      0.0000   390786         
    380     7        0.0000   279                      0.0000   399179         
    389     6    infeasible                            0.0000   417606         
    394     8        0.0000   213                      0.0000   423251         
    401     7    infeasible                            0.0000   427581         
    409     7    infeasible                            0.0000   431803         
Elapsed time = 75.28 sec. (84589.49 ticks, tree = 0.02 MB, solutions = 0)
    417     9        0.0000   185                      0.0000   435270         
    424     8        0.0000   234                      0.0000   437358         
    431     9        0.0000   239                      0.0000   440895         
    439     9        0.0000   246                      0.0000   444495         
    445     9        0.0000   248                      0.0000   447712         
    452     8    infeasible                            0.0000   451837         
    460     8        0.0000   238                      0.0000   454280         
    467     7    infeasible                            0.0000   458486         
    474     8        0.0000   262                      0.0000   461590         
    480     8        0.0000   277                      0.0000   465142         
Elapsed time = 84.64 sec. (95600.25 ticks, tree = 0.02 MB, solutions = 0)
    489     7        0.0000   242                      0.0000   468205         
    496     6    infeasible                            0.0000   471719         
    502     4    infeasible                            0.0000   478380         
    508     4    infeasible                            0.0000   483317         
    511     5        0.0000   300                      0.0000   490310         
    517     5        0.0000   293                      0.0000   493483         
    524     4    infeasible                            0.0000   497529         
    529     5        0.0000   297                      0.0000   504757         
    534     4    infeasible                            0.0000   510416         
    538     4    infeasible                            0.0000   520990         
Elapsed time = 94.28 sec. (106934.03 ticks, tree = 0.01 MB, solutions = 0)
    544     4    infeasible                            0.0000   535800         
    547     5        0.0000   245                      0.0000   542369         
    550     4    infeasible                            0.0000   549964         
    555     5        0.0000   264                      0.0000   556611         
    558     4    infeasible                            0.0000   564624         
    561     5        0.0000   260                      0.0000   573659         
    567     5        0.0000   280                      0.0000   589301         
    571     5        0.0000   258                      0.0000   598402         
    577     7        0.0000   312                      0.0000   601891         
    601    11        0.0000   327                      0.0000   613715         
Elapsed time = 106.84 sec. (121237.25 ticks, tree = 0.02 MB, solutions = 0)
    619     9        0.0000   285                      0.0000   627305         
    638    10    infeasible                            0.0000   644812         
    661    11        0.0000   276                      0.0000   657690         
    683    11        0.0000   291                      0.0000   674597         
    700     8    infeasible                            0.0000   689476         
    727     9        0.0000   286                      0.0000   701286         
    749     7    infeasible                            0.0000   718906         
    771     5    infeasible                            0.0000   729485         
    796     8        0.0000   307                      0.0000   741156         
    824    14        0.0000   180                      0.0000   751896         
Elapsed time = 139.98 sec. (160687.15 ticks, tree = 0.02 MB, solutions = 0)
    847    13        0.0000   178                      0.0000   771385         
    878    12    infeasible                            0.0000   787704         
    911    13    infeasible                            0.0000   802270         
    946    12    infeasible                            0.0000   816337         
    977    13    infeasible                            0.0000   830703         
   1008    12        0.0000   202                      0.0000   844363         
   1041    13        0.0000   150                      0.0000   859415         
   1074    14        0.0000   231                      0.0000   873402         
   1105    13    infeasible                            0.0000   888214         
   1138    12    infeasible                            0.0000   902197         
Elapsed time = 174.11 sec. (199598.76 ticks, tree = 0.02 MB, solutions = 0)
   1171    13        0.0000   179                      0.0000   916780         
   1205    13    infeasible                            0.0000   929326         
   1239    11    infeasible                            0.0000   943408         
   1266    12    infeasible                            0.0000   957505         
   1294    12        0.0000   235                      0.0000   973274         
   1326    12        0.0000   214                      0.0000   987375         
   1362    14        0.0000   212                      0.0000  1000013         
   1396    14        0.0000   170                      0.0000  1015898         
   1426    14    infeasible                            0.0000  1031810         
   1466    12    infeasible                            0.0000  1046806         
Elapsed time = 207.84 sec. (238272.87 ticks, tree = 0.02 MB, solutions = 0)
   1498    14        0.0000   218                      0.0000  1063205         
   1533    17        0.0000   149                      0.0000  1077466         
   1570    14    infeasible                            0.0000  1093244         
   1602    14    infeasible                            0.0000  1108638         
   1639    13    infeasible                            0.0000  1122755         
   1671    15    infeasible                            0.0000  1137130         
   1701    13    infeasible                            0.0000  1154337         
   1736    12    infeasible                            0.0000  1168631         
   1764    16        0.0000   171                      0.0000  1184481         
   1795    15        0.0000   219                      0.0000  1200276         
Elapsed time = 241.36 sec. (277106.75 ticks, tree = 0.02 MB, solutions = 0)
   1828    16        0.0000   214                      0.0000  1214541         
   1861    15        0.0000   171                      0.0000  1229720         
   1887    13    infeasible                            0.0000  1246940         
   1917    13        0.0000   253                      0.0000  1261857         
   1945    15        0.0000   198                      0.0000  1277295         
   1973    15    infeasible                            0.0000  1293359         
   2002    14    infeasible                            0.0000  1308972         
   2031    15        0.0000   154                      0.0000  1325383         
   2059    15        0.0000   214                      0.0000  1340235         
   2085    13    infeasible                            0.0000  1354894         
Elapsed time = 273.99 sec. (315985.57 ticks, tree = 0.02 MB, solutions = 0)
   2118    14        0.0000   218                      0.0000  1369380         
   2149    13    infeasible                            0.0000  1385902         
   2184    15        0.0000   159                      0.0000  1400130         
   2221    14    infeasible                            0.0000  1414601         
   2255    14        0.0000   197                      0.0000  1429481         
   2288    13    infeasible                            0.0000  1445455         
   2322    13        0.0000   228                      0.0000  1458632         
   2354    13        0.0000   225                      0.0000  1474603         
   2388    13        0.0000   217                      0.0000  1489805         
   2421    13    infeasible                            0.0000  1503634         
Elapsed time = 307.30 sec. (354708.70 ticks, tree = 0.02 MB, solutions = 0)
   2457    13        0.0000   234                      0.0000  1517767         
   2491    13        0.0000   220                      0.0000  1531489         
   2519    13        0.0000   235                      0.0000  1548405         
   2548    14        0.0000   213                      0.0000  1562042         
   2579    17        0.0000   177                      0.0000  1576367         
   2610    16        0.0000   167                      0.0000  1592967         
   2640    16        0.0000   230                      0.0000  1609299         
   2678    14    infeasible                            0.0000  1624432         
   2712    16        0.0000   235                      0.0000  1639854         
   2749    15        0.0000   225                      0.0000  1653654         
Elapsed time = 340.87 sec. (393890.96 ticks, tree = 0.02 MB, solutions = 0)
   2783    15        0.0000   201                      0.0000  1669216         
   2809    13    infeasible                            0.0000  1686486         
   2842    18        0.0000   211                      0.0000  1700463         
   2879    17        0.0000   198                      0.0000  1716640         

Performing restart 1

Repeating presolve.
Tried aggregator 1 time.
MIP Presolve modified 7350 coefficients.
Reduced MIP has 612 rows, 2500 columns, and 24308 nonzeros.
Reduced MIP has 2500 binaries, 0 generals, 0 SOSs, and 0 indicators.
Presolve time = 0.02 sec. (24.85 ticks)
Tried aggregator 1 time.
Reduced MIP has 612 rows, 2500 columns, and 24308 nonzeros.
Reduced MIP has 2500 binaries, 0 generals, 0 SOSs, and 0 indicators.
Presolve time = 0.02 sec. (17.87 ticks)
Represolve time = 0.18 sec. (113.51 ticks)
   2916     0        0.0000   429                     Cuts: 9  1735792         
   2916     0        0.0000   362                    Cuts: 12  1737654         
   2916     0        0.0000   397                    Cuts: 14  1740038         
   2916     0        0.0000   402                    Cuts: 22  1743013         
   2916     0        0.0000   484                    Cuts: 15  1746252         
   2916     0        0.0000   446                    Cuts: 22  1751362         
   2916     0        0.0000   447                    Cuts: 33  1756974         
   2916     2        0.0000   266                      0.0000  1756974         
   2925     5    infeasible                            0.0000  1776818         
   2933     7    infeasible                            0.0000  1789526         
   2955     9    infeasible                            0.0000  1815727         
   2964    10        0.0000   377                      0.0000  1834220         
   2973    13    infeasible                            0.0000  1850301         
Elapsed time = 396.86 sec. (458658.11 ticks, tree = 0.02 MB, solutions = 0)
   2998    14        0.0000   380                      0.0000  1880952         
   3025    15    infeasible                            0.0000  1916742         
   3049    17        0.0000   351                      0.0000  1945489         
   3078    17        0.0000   340                      0.0000  1983158         
   3107     6    infeasible                            0.0000  2025347         

Clique cuts applied:  20
Zero-half cuts applied:  32
Lift and project cuts applied:  1
Gomory fractional cuts applied:  3

Root node processing (before b&c):
  Real time             =   12.82 sec. (14293.26 ticks)
Sequential b&c:
  Real time             =  401.82 sec. (464263.47 ticks)
                          ------------
Total (root+branch&cut) =  414.64 sec. (478556.74 ticks)
Version identifier: 22.1.0.0 | 2022-03-09 | 1a383f8ce
CPXPARAM_Threads                                 1
CPXPARAM_MIP_Strategy_VariableSelect             3
CPXPARAM_TimeLimit                               185.33468379099997
Tried aggregator 1 time.
MIP Presolve eliminated 13 rows and 0 columns.
MIP Presolve modified 2 coefficients.
Reduced MIP has 606 rows, 2475 columns, and 25514 nonzeros.
Reduced MIP has 2475 binaries, 0 generals, 0 SOSs, and 0 indicators.
Presolve time = 0.02 sec. (15.42 ticks)
Probing time = 0.00 sec. (3.64 ticks)
Tried aggregator 1 time.
Detecting symmetries...
Reduced MIP has 606 rows, 2475 columns, and 25514 nonzeros.
Reduced MIP has 2475 binaries, 0 generals, 0 SOSs, and 0 indicators.
Presolve time = 0.02 sec. (17.92 ticks)
Probing time = 0.00 sec. (3.64 ticks)
Clique table members: 394.
MIP emphasis: balance optimality and feasibility.
MIP search method: dynamic search.
Parallel mode: none, using 1 thread.
Root relaxation solution time = 0.19 sec. (227.98 ticks)

        Nodes                                         Cuts/
   Node  Left     Objective  IInf  Best Integer    Best Bound    ItCnt     Gap

      0     0        0.0000   508                      0.0000     1732         
      0     2        0.0000   210                      0.0000     1732         
Elapsed time = 3.84 sec. (4342.73 ticks, tree = 0.01 MB, solutions = 0)
      1     3        0.0000   481                      0.0000     4268         
      2     4        0.0000   274                      0.0000     5949         
      3     5        0.0000   379                      0.0000     8088         
      5     7        0.0000   398                      0.0000    10132         
      7     9        0.0000   442                      0.0000    11685         
      9     9    infeasible                            0.0000    17251         
     10    10        0.0000   441                      0.0000    17257         
     11     9    infeasible                            0.0000    22941         
     13     9    infeasible                            0.0000    29568         
     16    10    infeasible                            0.0000    34075         
Elapsed time = 9.78 sec. (11449.57 ticks, tree = 0.04 MB, solutions = 0)
     23    15        0.0000   253                      0.0000    41443         
     28    18    infeasible                            0.0000    51085         
     33    23        0.0000   213                      0.0000    55942         
     37    27        0.0000   154                      0.0000    61993         
     41    29        0.0000    74                      0.0000    69123         
     49    31    infeasible                            0.0000    75441         
     54    30    infeasible                            0.0000    82663         
     60    30        0.0000    70                      0.0000    91776         
     65    29        0.0000    82                      0.0000   101211         
     73    29        0.0000   213                      0.0000   111292         
Elapsed time = 19.73 sec. (22290.08 ticks, tree = 0.13 MB, solutions = 0)
     77    33        0.0000   159                      0.0000   121074         
     82    32    infeasible                            0.0000   130497         
     84    32        0.0000   174                      0.0000   137465         
     88    32        0.0000   188                      0.0000   146269         
     94    32        0.0000   278                      0.0000   153755         
    100    34        0.0000   221                      0.0000   160382         
    105    37        0.0000   179                      0.0000   166024         
    109    39        0.0000   196                      0.0000   172601         
    114    40        0.0000   243                      0.0000   181209         
    119    41        0.0000   198                      0.0000   187476         
Elapsed time = 29.51 sec. (33030.17 ticks, tree = 0.17 MB, solutions = 0)
    123    43        0.0000   197                      0.0000   194330         
    127    47        0.0000   208                      0.0000   200630         
    130    50        0.0000   148                      0.0000   206025         
    135    53    infeasible                            0.0000   212155         
    139    57        0.0000   216                      0.0000   218240         
    144    62        0.0000   147                      0.0000   221795         
    149    65    infeasible                            0.0000   228463         
    155    67        0.0000    87                      0.0000   235464         
    161    67        0.0000   159                      0.0000   252153         
    167    67        0.0000   216                      0.0000   260285         
Elapsed time = 39.37 sec. (43623.24 ticks, tree = 0.29 MB, solutions = 0)
    175    69        0.0000   187                      0.0000   268601         
    182    67    infeasible                            0.0000   277802         
    189    68        0.0000    76                      0.0000   284724         
    195    68        0.0000   215                      0.0000   293696         
    201    68        0.0000   245                      0.0000   302214         
    206    69        0.0000   227                      0.0000   311955         
    212    71        0.0000   222                      0.0000   320502         
    216    71        0.0000   179                      0.0000   330182         
    221    74        0.0000   220                      0.0000   336635         
    227    74    infeasible                            0.0000   344595         
Elapsed time = 49.16 sec. (54285.96 ticks, tree = 0.30 MB, solutions = 0)
    230    75        0.0000   218                      0.0000   350123         
    237    76        0.0000   218                      0.0000   357511         
    248    77        0.0000   203                      0.0000   364862         
    258    77        0.0000   178                      0.0000   373213         
    268    77        0.0000   141                      0.0000   381085         
    275    78    infeasible                            0.0000   389779         
    280    82        0.0000   202                      0.0000   394523         
    290    83    infeasible                            0.0000   395647         
    300    83    infeasible                            0.0000   397550         
    308    87        0.0000   213                      0.0000   399176         
Elapsed time = 58.45 sec. (64675.04 ticks, tree = 0.38 MB, solutions = 0)
    318    89        0.0000   185                      0.0000   400498         
    325    91    infeasible                            0.0000   401101         
    334    92        0.0000   295                      0.0000   403130         
    340    96        0.0000   218                      0.0000   405957         
    347    99    infeasible                            0.0000   408567         
    355   104    infeasible                            0.0000   410004         
    363   104        0.0000   190                      0.0000   411998         
    370   109        0.0000   203                      0.0000   413112         
    379   112    infeasible                            0.0000   415036         
    389   115        0.0000   156                      0.0000   417525         
Elapsed time = 67.30 sec. (74952.41 ticks, tree = 0.55 MB, solutions = 0)
    398   114        0.0000   174                      0.0000   420984         
    406   114        0.0000   169                      0.0000   424273         
    415   115    infeasible                            0.0000   426872         
    426   116        0.0000   161                      0.0000   428949         
    437   115    infeasible                            0.0000   431250         
    446   118        0.0000   158                      0.0000   432587         
    458   116    infeasible                            0.0000   434529         
    469   117        0.0000   154                      0.0000   436189         
    481   114    infeasible                            0.0000   438453         
    491   114    infeasible                            0.0000   441084         
Elapsed time = 76.27 sec. (85014.92 ticks, tree = 0.55 MB, solutions = 0)
    500   117        0.0000   173                      0.0000   442652         
    511   116    infeasible                            0.0000   444953         
    520   117        0.0000   165                      0.0000   446881         
    531   116    infeasible                            0.0000   449264         
    542   117        0.0000   166                      0.0000   450717         
    553   118        0.0000   170                      0.0000   452524         
    565   118        0.0000   174                      0.0000   454104         
    577   118        0.0000   170                      0.0000   455989         
    588   117    infeasible                            0.0000   458085         
    600   115        0.0000   176                      0.0000   460199         
Elapsed time = 85.15 sec. (95119.74 ticks, tree = 0.55 MB, solutions = 0)
    611   114    infeasible                            0.0000   462882         
    622   115    infeasible                            0.0000   464509         
    634   115    infeasible                            0.0000   466287         
    646   115    infeasible                            0.0000   467463         
    659   112        0.0000   176                      0.0000   469355         
    671   112        0.0000   178                      0.0000   471145         
    683   112        0.0000   177                      0.0000   472943         
    695   112        0.0000   184                      0.0000   474749         
    706   111        0.0000   187                      0.0000   476635         
    737   118        0.0000   198                      0.0000   483848         
Elapsed time = 96.22 sec. (107859.77 ticks, tree = 0.57 MB, solutions = 0)
    779   119        0.0000   166                      0.0000   491337         
    820   120    infeasible                            0.0000   498239         
    861   118    infeasible                            0.0000   505296         
    896   123        0.0000   134                      0.0000   513539         
    937   124        0.0000    87                      0.0000   521979         
    980   125        0.0000    82                      0.0000   531044         
   1024   125        0.0000   150                      0.0000   538910         
   1072   123        0.0000   138                      0.0000   544617         
   1112   122    infeasible                            0.0000   553147         
   1158   121    infeasible                            0.0000   561691         
Elapsed time = 130.25 sec. (147143.49 ticks, tree = 0.59 MB, solutions = 0)
   1199   122        0.0000   129                      0.0000   568347         
   1242   127    infeasible                            0.0000   572688         
   1285   130        0.0000   109                      0.0000   577186         
   1334   127    infeasible                            0.0000   581655         
   1381   128        0.0000   106                      0.0000   585570         
   1427   127    infeasible                            0.0000   590275         
   1467   131    infeasible                            0.0000   594797         
   1513   131    infeasible                            0.0000   598975         
   1561   131        0.0000   116                      0.0000   602694         
   1606   130        0.0000    52                      0.0000   607356         
Elapsed time = 164.06 sec. (185701.17 ticks, tree = 0.64 MB, solutions = 0)
   1651   129        0.0000    93                      0.0000   611314         
   1696   128        0.0000    90                      0.0000   615256         
   1741   131        0.0000   124                      0.0000   620056         
   1792   128        0.0000   126                      0.0000   624144         

Performing restart 1

Repeating presolve.
Tried aggregator 1 time.
MIP Presolve modified 7275 coefficients.
Reduced MIP has 606 rows, 2475 columns, and 24059 nonzeros.
Reduced MIP has 2475 binaries, 0 generals, 0 SOSs, and 0 indicators.
Presolve time = 0.02 sec. (24.67 ticks)
Tried aggregator 1 time.
Reduced MIP has 606 rows, 2475 columns, and 24059 nonzeros.
Reduced MIP has 2475 binaries, 0 generals, 0 SOSs, and 0 indicators.
Presolve time = 0.02 sec. (17.73 ticks)
Represolve time = 0.12 sec. (90.76 ticks)
   1820     0        0.0000   455                     Cuts: 5   630262         
   1820     0        0.0000   183                  Cliques: 2   630695         
   1820     0        0.0000   488                   Cuts: 145   632391         

Clique cuts applied:  14
Zero-half cuts applied:  14
Lift and project cuts applied:  3

Root node processing (before b&c):
  Real time             =    3.83 sec. (4331.25 ticks)
Sequential b&c:
  Real time             =  181.51 sec. (205214.95 ticks)
                          ------------
Total (root+branch&cut) =  185.34 sec. (209546.20 ticks)
Primal:	3
Dual:	99
Status:	Feasible
Time:	600.011
Sequence:
	10
	4
	4
